% seed = 0

mint = 14;
% maxt = 24;

nActs = 8;
dur = [0,2,4,2,8,4,4,0];

nSkills = 2;
sreq = [| 0,0,
	| 0,3,
	| 1,2,
	| 2,0,
	| 1,0,
	| 3,0,
	| 1,2,
	| 0,0, |];

% SumOfsreq = 15;

nResources = 7;
mastery = [| true,true,
	| false,true,
	| false,true,
	| true,false,
	| true,false,
	| true,true,
	| false,true, |];

nPrecs = 11;
pred = [1,2,2,2,3,3,4,4,5,6,7];
succ = [2,3,5,6,4,6,6,7,7,8,8];

nUnrels = 4;
unpred = [3,4,5,6];
unsucc = [5,5,6,7];

USEFUL_RES = [{},
	{1,2,3,6,7},
	{1,2,3,4,5,6,7},
	{1,4,5,6},
	{1,4,5,6},
	{1,4,5,6},
	{1,2,3,4,5,6,7},
	{}];

POTENTIAL_ACT = [{2,3,4,5,6,7},
	{2,3,7},
	{2,3,7},
	{3,4,5,6,7},
	{3,4,5,6,7},
	{2,3,4,5,6,7},
	{2,3,7}];
